100 2 100
89 58 86 89 2 95 26 20 28 58 12 42 30 71 70 72 43 98 88 82 32 46 25 39 16 14 91 35 73 58 45 62 68 84 3 22 79 29 42 59 88 54 53 70 26 23 94 21 73 83 3 58 29 28 97 97 94 89 84 67 99 82 81 19 66 85 42 97 66 84 9 6 39 62 29 17 86 23 90 11 58 93 69 39 73 67 36 67 8 73 87 59 55 68 78 21 5 20 70 24 
